Minimize
M1 + M2
Subject To
x0,11 = 1
x1,9 = 1
x2,8 = 1
x3,7 = 1
x4,11 = 1
x5,9 = 1
x6,8 = 1
x7,7 = 1
x8,10 + x8,11 = 1
x9,8 + x9,9 = 1
x10,7 + x10,8 = 1
x11,6 + x11,7 = 1
x12,9 + x12,10 + x12,11 = 1
x13,7 + x13,8 + x13,9 = 1
x14,6 + x14,7 + x14,8 = 1
x15,5 + x15,6 + x15,7 = 1
x16,9 + x16,10 = 1
x17,8 + x17,9 = 1
x18,7 + x18,8 = 1
x19,5 = 1
x20,9 + x20,10 = 1
x21,8 + x21,9 = 1
x22,7 + x22,8 = 1
x23,5 = 1
x24,4 = 1
x25,8 + x25,9 + x25,10 = 1
x26,7 + x26,8 + x26,9 = 1
x27,6 + x27,7 + x27,8 = 1
x28,4 + x28,5 = 1
x29,3 = 1
x30,7 + x30,8 + x30,9 + x30,10 = 1
x31,6 + x31,7 + x31,8 + x31,9 = 1
x32,5 + x32,6 + x32,7 + x32,8 = 1
x33,3 + x33,4 + x33,5 = 1
x34,2 = 1
x35,5 + x35,6 + x35,7 + x35,8 + x35,9 + x35,10 + x35,11 = 1
x36,3 + x36,4 + x36,5 + x36,6 + x36,7 + x36,8 + x36,9 = 1
x37,2 + x37,3 + x37,4 + x37,5 + x37,6 + x37,7 + x37,8 = 1
x38,1 = 1
x39,9 + x39,10 = 1
x40,8 + x40,9 = 1
x41,7 + x41,8 = 1
x42,5 = 1
x43,9 + x43,10 = 1
x44,8 + x44,9 = 1
x45,7 + x45,8 = 1
x46,5 = 1
x47,4 = 1
x48,8 + x48,9 + x48,10 = 1
x49,7 + x49,8 + x49,9 = 1
x50,6 + x50,7 + x50,8 = 1
x51,4 + x51,5 = 1
x52,3 = 1
x53,7 + x53,8 + x53,9 + x53,10 = 1
x54,6 + x54,7 + x54,8 + x54,9 = 1
x55,5 + x55,6 + x55,7 + x55,8 = 1
x56,3 + x56,4 + x56,5 = 1
x57,2 = 1
x58,5 + x58,6 + x58,7 + x58,8 + x58,9 + x58,10 + x58,11 = 1
x59,3 + x59,4 + x59,5 + x59,6 + x59,7 + x59,8 + x59,9 = 1
x60,2 + x60,3 + x60,4 + x60,5 + x60,6 + x60,7 + x60,8 = 1
x61,1 = 1
x62,9 + x62,10 = 1
x63,8 + x63,9 = 1
x64,7 + x64,8 = 1
x65,5 = 1
x66,9 + x66,10 = 1
x67,8 + x67,9 = 1
x68,7 + x68,8 = 1
x69,5 = 1
x70,4 = 1
x71,8 + x71,9 + x71,10 = 1
x72,7 + x72,8 + x72,9 = 1
x73,6 + x73,7 + x73,8 = 1
x74,4 + x74,5 = 1
x75,3 = 1
x76,7 + x76,8 + x76,9 + x76,10 = 1
x77,6 + x77,7 + x77,8 + x77,9 = 1
x78,5 + x78,6 + x78,7 + x78,8 = 1
x79,3 + x79,4 + x79,5 = 1
x80,2 = 1
x81,5 + x81,6 + x81,7 + x81,8 + x81,9 + x81,10 + x81,11 = 1
x82,3 + x82,4 + x82,5 + x82,6 + x82,7 + x82,8 + x82,9 = 1
x83,2 + x83,3 + x83,4 + x83,5 + x83,6 + x83,7 + x83,8 = 1
x84,1 = 1
x85,9 + x85,10 = 1
x86,8 + x86,9 = 1
x87,7 + x87,8 = 1
x88,5 = 1
x89,9 + x89,10 = 1
x90,8 + x90,9 = 1
x91,7 + x91,8 = 1
x92,5 = 1
x93,4 = 1
x94,8 + x94,9 + x94,10 = 1
x95,7 + x95,8 + x95,9 = 1
x96,6 + x96,7 + x96,8 = 1
x97,4 + x97,5 = 1
x98,3 = 1
x99,7 + x99,8 + x99,9 + x99,10 = 1
x100,6 + x100,7 + x100,8 + x100,9 = 1
x101,5 + x101,6 + x101,7 + x101,8 = 1
x102,3 + x102,4 + x102,5 = 1
x103,2 = 1
x104,5 + x104,6 + x104,7 + x104,8 + x104,9 + x104,10 + x104,11 = 1
x105,3 + x105,4 + x105,5 + x105,6 + x105,7 + x105,8 + x105,9 = 1
x106,2 + x106,3 + x106,4 + x106,5 + x106,6 + x106,7 + x106,8 = 1
x107,1 = 1
x108,1 + x108,2 + x108,3 + x108,4 + x108,5 + x108,6 + x108,7 + x108,8 + x108,9 + x108,10 + x108,11 = 1
x38,1 + x61,1 + x84,1 + x107,1 + x108,1 - M2 <= 0
x34,2 + x37,2 + x57,2 + x60,2 + x80,2 + x83,2 + x103,2 + x106,2 + x108,2 - M2 <= 0
x29,3 + x37,3 + x52,3 + x60,3 + x75,3 + x83,3 + x98,3 + x106,3 + x108,3 - M2 <= 0
x33,3 + x33,2 + x36,3 + x36,2 + x56,3 + x56,2 + x59,3 + x59,2 + x79,3 + x79,2 + x82,3 + x82,2 + x102,3 + x102,2 + x105,3 + x105,2 - M1 <= 0
x24,4 + x37,4 + x47,4 + x60,4 + x70,4 + x83,4 + x93,4 + x106,4 + x108,4 - M2 <= 0
x28,4 + x28,3 + x33,4 + x33,3 + x36,4 + x36,3 + x51,4 + x51,3 + x56,4 + x56,3 + x59,4 + x59,3 + x74,4 + x74,3 + x79,4 + x79,3 + x82,4 + x82,3 + x97,4 + x97,3 + x102,4 + x102,3 + x105,4 + x105,3 - M1 <= 0
x15,5 + x32,5 + x35,5 + x37,5 + x55,5 + x58,5 + x60,5 + x78,5 + x81,5 + x83,5 + x101,5 + x104,5 + x106,5 + x108,5 - M2 <= 0
x19,5 + x19,4 + x23,5 + x23,4 + x28,5 + x28,4 + x33,5 + x33,4 + x36,5 + x36,4 + x42,5 + x42,4 + x46,5 + x46,4 + x51,5 + x51,4 + x56,5 + x56,4 + x59,5 + x59,4 + x65,5 + x65,4 + x69,5 + x69,4 + x74,5 + x74,4 + x79,5 + x79,4 + x82,5 + x82,4 + x88,5 + x88,4 + x92,5 + x92,4 + x97,5 + x97,4 + x102,5 + x102,4 + x105,5 + x105,4 - M1 <= 0
x11,6 + x14,6 + x15,6 + x27,6 + x31,6 + x32,6 + x35,6 + x37,6 + x50,6 + x54,6 + x55,6 + x58,6 + x60,6 + x73,6 + x77,6 + x78,6 + x81,6 + x83,6 + x96,6 + x100,6 + x101,6 + x104,6 + x106,6 + x108,6 - M2 <= 0
x19,6 + x19,5 + x23,6 + x23,5 + x28,6 + x28,5 + x33,6 + x33,5 + x36,6 + x36,5 + x42,6 + x42,5 + x46,6 + x46,5 + x51,6 + x51,5 + x56,6 + x56,5 + x59,6 + x59,5 + x65,6 + x65,5 + x69,6 + x69,5 + x74,6 + x74,5 + x79,6 + x79,5 + x82,6 + x82,5 + x88,6 + x88,5 + x92,6 + x92,5 + x97,6 + x97,5 + x102,6 + x102,5 + x105,6 + x105,5 - M1 <= 0
x3,7 + x7,7 + x10,7 + x11,7 + x14,7 + x15,7 + x18,7 + x22,7 + x26,7 + x27,7 + x31,7 + x32,7 + x35,7 + x37,7 + x41,7 + x45,7 + x49,7 + x50,7 + x54,7 + x55,7 + x58,7 + x60,7 + x64,7 + x68,7 + x72,7 + x73,7 + x77,7 + x78,7 + x81,7 + x83,7 + x87,7 + x91,7 + x95,7 + x96,7 + x100,7 + x101,7 + x104,7 + x106,7 + x108,7 - M2 <= 0
x13,7 + x13,6 + x30,7 + x30,6 + x36,7 + x36,6 + x53,7 + x53,6 + x59,7 + x59,6 + x76,7 + x76,6 + x82,7 + x82,6 + x99,7 + x99,6 + x105,7 + x105,6 - M1 <= 0
x2,8 + x6,8 + x10,8 + x14,8 + x17,8 + x18,8 + x21,8 + x22,8 + x26,8 + x27,8 + x31,8 + x32,8 + x35,8 + x37,8 + x40,8 + x41,8 + x44,8 + x45,8 + x49,8 + x50,8 + x54,8 + x55,8 + x58,8 + x60,8 + x63,8 + x64,8 + x67,8 + x68,8 + x72,8 + x73,8 + x77,8 + x78,8 + x81,8 + x83,8 + x86,8 + x87,8 + x90,8 + x91,8 + x95,8 + x96,8 + x100,8 + x101,8 + x104,8 + x106,8 + x108,8 - M2 <= 0
x9,8 + x9,7 + x13,8 + x13,7 + x25,8 + x25,7 + x30,8 + x30,7 + x36,8 + x36,7 + x48,8 + x48,7 + x53,8 + x53,7 + x59,8 + x59,7 + x71,8 + x71,7 + x76,8 + x76,7 + x82,8 + x82,7 + x94,8 + x94,7 + x99,8 + x99,7 + x105,8 + x105,7 - M1 <= 0
x12,9 + x17,9 + x21,9 + x26,9 + x31,9 + x35,9 + x40,9 + x44,9 + x49,9 + x54,9 + x58,9 + x63,9 + x67,9 + x72,9 + x77,9 + x81,9 + x86,9 + x90,9 + x95,9 + x100,9 + x104,9 + x108,9 - M2 <= 0
x1,9 + x1,8 + x5,9 + x5,8 + x9,9 + x9,8 + x13,9 + x13,8 + x16,9 + x16,8 + x20,9 + x20,8 + x25,9 + x25,8 + x30,9 + x30,8 + x36,9 + x36,8 + x39,9 + x39,8 + x43,9 + x43,8 + x48,9 + x48,8 + x53,9 + x53,8 + x59,9 + x59,8 + x62,9 + x62,8 + x66,9 + x66,8 + x71,9 + x71,8 + x76,9 + x76,8 + x82,9 + x82,8 + x85,9 + x85,8 + x89,9 + x89,8 + x94,9 + x94,8 + x99,9 + x99,8 + x105,9 + x105,8 - M1 <= 0
x8,10 + x12,10 + x35,10 + x58,10 + x81,10 + x104,10 + x108,10 - M2 <= 0
x1,10 + x1,9 + x5,10 + x5,9 + x9,10 + x9,9 + x13,10 + x13,9 + x16,10 + x16,9 + x20,10 + x20,9 + x25,10 + x25,9 + x30,10 + x30,9 + x36,10 + x36,9 + x39,10 + x39,9 + x43,10 + x43,9 + x48,10 + x48,9 + x53,10 + x53,9 + x59,10 + x59,9 + x62,10 + x62,9 + x66,10 + x66,9 + x71,10 + x71,9 + x76,10 + x76,9 + x82,10 + x82,9 + x85,10 + x85,9 + x89,10 + x89,9 + x94,10 + x94,9 + x99,10 + x99,9 + x105,10 + x105,9 - M1 <= 0
x0,11 + x4,11 + x8,11 + x12,11 + x35,11 + x58,11 + x81,11 + x104,11 + x108,11 - M2 <= 0
x16,11 + x16,10 + x20,11 + x20,10 + x25,11 + x25,10 + x30,11 + x30,10 + x39,11 + x39,10 + x43,11 + x43,10 + x48,11 + x48,10 + x53,11 + x53,10 + x62,11 + x62,10 + x66,11 + x66,10 + x71,11 + x71,10 + x76,11 + x76,10 + x85,11 + x85,10 + x89,11 + x89,10 + x94,11 + x94,10 + x99,11 + x99,10 - M1 <= 0
9 x1,9 - 11 x0,11 <= -2
8 x2,8 - 9 x1,9 <= -1
7 x3,7 - 8 x2,8 <= -1
9 x5,9 - 11 x4,11 <= -2
8 x6,8 - 9 x5,9 <= -1
7 x7,7 - 8 x6,8 <= -1
8 x9,8 + 9 x9,9 - 10 x8,10 - 11 x8,11 <= -2
7 x10,7 + 8 x10,8 - 8 x9,8 - 9 x9,9 <= -1
6 x11,6 + 7 x11,7 - 7 x10,7 - 8 x10,8 <= -1
7 x13,7 + 8 x13,8 + 9 x13,9 - 9 x12,9 - 10 x12,10 - 11 x12,11 <= -2
6 x14,6 + 7 x14,7 + 8 x14,8 - 7 x13,7 - 8 x13,8 - 9 x13,9 <= -1
5 x15,5 + 6 x15,6 + 7 x15,7 - 6 x14,6 - 7 x14,7 - 8 x14,8 <= -1
8 x17,8 + 9 x17,9 - 9 x16,9 - 10 x16,10 <= -1
7 x18,7 + 8 x18,8 - 8 x17,8 - 9 x17,9 <= -1
5 x19,5 - 7 x3,7 <= -2
5 x19,5 - 7 x18,7 - 8 x18,8 <= -2
8 x21,8 + 9 x21,9 - 9 x20,9 - 10 x20,10 <= -1
7 x22,7 + 8 x22,8 - 8 x21,8 - 9 x21,9 <= -1
5 x23,5 - 7 x7,7 <= -2
5 x23,5 - 7 x22,7 - 8 x22,8 <= -2
4 x24,4 - 5 x19,5 <= -1
4 x24,4 - 5 x23,5 <= -1
7 x26,7 + 8 x26,8 + 9 x26,9 - 8 x25,8 - 9 x25,9 - 10 x25,10 <= -1
6 x27,6 + 7 x27,7 + 8 x27,8 - 7 x26,7 - 8 x26,8 - 9 x26,9 <= -1
4 x28,4 + 5 x28,5 - 6 x11,6 - 7 x11,7 <= -2
4 x28,4 + 5 x28,5 - 6 x27,6 - 7 x27,7 - 8 x27,8 <= -2
3 x29,3 - 4 x24,4 <= -1
3 x29,3 - 4 x28,4 - 5 x28,5 <= -1
6 x31,6 + 7 x31,7 + 8 x31,8 + 9 x31,9 - 7 x30,7 - 8 x30,8 - 9 x30,9 - 10 x30,10 <= -1
5 x32,5 + 6 x32,6 + 7 x32,7 + 8 x32,8 - 6 x31,6 - 7 x31,7 - 8 x31,8 - 9 x31,9 <= -1
3 x33,3 + 4 x33,4 + 5 x33,5 - 5 x15,5 - 6 x15,6 - 7 x15,7 <= -2
3 x33,3 + 4 x33,4 + 5 x33,5 - 5 x32,5 - 6 x32,6 - 7 x32,7 - 8 x32,8 <= -2
2 x34,2 - 3 x29,3 <= -1
2 x34,2 - 3 x33,3 - 4 x33,4 - 5 x33,5 <= -1
3 x36,3 + 4 x36,4 + 5 x36,5 + 6 x36,6 + 7 x36,7 + 8 x36,8 + 9 x36,9 - 5 x35,5 - 6 x35,6 - 7 x35,7 - 8 x35,8 - 9 x35,9 - 10 x35,10 - 11 x35,11 <= -2
2 x37,2 + 3 x37,3 + 4 x37,4 + 5 x37,5 + 6 x37,6 + 7 x37,7 + 8 x37,8 - 3 x36,3 - 4 x36,4 - 5 x36,5 - 6 x36,6 - 7 x36,7 - 8 x36,8 - 9 x36,9 <= -1
1 x38,1 - 2 x34,2 <= -1
1 x38,1 - 2 x37,2 - 3 x37,3 - 4 x37,4 - 5 x37,5 - 6 x37,6 - 7 x37,7 - 8 x37,8 <= -1
8 x40,8 + 9 x40,9 - 9 x39,9 - 10 x39,10 <= -1
7 x41,7 + 8 x41,8 - 8 x40,8 - 9 x40,9 <= -1
5 x42,5 - 7 x3,7 <= -2
5 x42,5 - 7 x41,7 - 8 x41,8 <= -2
8 x44,8 + 9 x44,9 - 9 x43,9 - 10 x43,10 <= -1
7 x45,7 + 8 x45,8 - 8 x44,8 - 9 x44,9 <= -1
5 x46,5 - 7 x7,7 <= -2
5 x46,5 - 7 x45,7 - 8 x45,8 <= -2
4 x47,4 - 5 x42,5 <= -1
4 x47,4 - 5 x46,5 <= -1
7 x49,7 + 8 x49,8 + 9 x49,9 - 8 x48,8 - 9 x48,9 - 10 x48,10 <= -1
6 x50,6 + 7 x50,7 + 8 x50,8 - 7 x49,7 - 8 x49,8 - 9 x49,9 <= -1
4 x51,4 + 5 x51,5 - 6 x11,6 - 7 x11,7 <= -2
4 x51,4 + 5 x51,5 - 6 x50,6 - 7 x50,7 - 8 x50,8 <= -2
3 x52,3 - 4 x47,4 <= -1
3 x52,3 - 4 x51,4 - 5 x51,5 <= -1
6 x54,6 + 7 x54,7 + 8 x54,8 + 9 x54,9 - 7 x53,7 - 8 x53,8 - 9 x53,9 - 10 x53,10 <= -1
5 x55,5 + 6 x55,6 + 7 x55,7 + 8 x55,8 - 6 x54,6 - 7 x54,7 - 8 x54,8 - 9 x54,9 <= -1
3 x56,3 + 4 x56,4 + 5 x56,5 - 5 x15,5 - 6 x15,6 - 7 x15,7 <= -2
3 x56,3 + 4 x56,4 + 5 x56,5 - 5 x55,5 - 6 x55,6 - 7 x55,7 - 8 x55,8 <= -2
2 x57,2 - 3 x52,3 <= -1
2 x57,2 - 3 x56,3 - 4 x56,4 - 5 x56,5 <= -1
3 x59,3 + 4 x59,4 + 5 x59,5 + 6 x59,6 + 7 x59,7 + 8 x59,8 + 9 x59,9 - 5 x58,5 - 6 x58,6 - 7 x58,7 - 8 x58,8 - 9 x58,9 - 10 x58,10 - 11 x58,11 <= -2
2 x60,2 + 3 x60,3 + 4 x60,4 + 5 x60,5 + 6 x60,6 + 7 x60,7 + 8 x60,8 - 3 x59,3 - 4 x59,4 - 5 x59,5 - 6 x59,6 - 7 x59,7 - 8 x59,8 - 9 x59,9 <= -1
1 x61,1 - 2 x57,2 <= -1
1 x61,1 - 2 x60,2 - 3 x60,3 - 4 x60,4 - 5 x60,5 - 6 x60,6 - 7 x60,7 - 8 x60,8 <= -1
8 x63,8 + 9 x63,9 - 9 x62,9 - 10 x62,10 <= -1
7 x64,7 + 8 x64,8 - 8 x63,8 - 9 x63,9 <= -1
5 x65,5 - 7 x3,7 <= -2
5 x65,5 - 7 x64,7 - 8 x64,8 <= -2
8 x67,8 + 9 x67,9 - 9 x66,9 - 10 x66,10 <= -1
7 x68,7 + 8 x68,8 - 8 x67,8 - 9 x67,9 <= -1
5 x69,5 - 7 x7,7 <= -2
5 x69,5 - 7 x68,7 - 8 x68,8 <= -2
4 x70,4 - 5 x65,5 <= -1
4 x70,4 - 5 x69,5 <= -1
7 x72,7 + 8 x72,8 + 9 x72,9 - 8 x71,8 - 9 x71,9 - 10 x71,10 <= -1
6 x73,6 + 7 x73,7 + 8 x73,8 - 7 x72,7 - 8 x72,8 - 9 x72,9 <= -1
4 x74,4 + 5 x74,5 - 6 x11,6 - 7 x11,7 <= -2
4 x74,4 + 5 x74,5 - 6 x73,6 - 7 x73,7 - 8 x73,8 <= -2
3 x75,3 - 4 x70,4 <= -1
3 x75,3 - 4 x74,4 - 5 x74,5 <= -1
6 x77,6 + 7 x77,7 + 8 x77,8 + 9 x77,9 - 7 x76,7 - 8 x76,8 - 9 x76,9 - 10 x76,10 <= -1
5 x78,5 + 6 x78,6 + 7 x78,7 + 8 x78,8 - 6 x77,6 - 7 x77,7 - 8 x77,8 - 9 x77,9 <= -1
3 x79,3 + 4 x79,4 + 5 x79,5 - 5 x15,5 - 6 x15,6 - 7 x15,7 <= -2
3 x79,3 + 4 x79,4 + 5 x79,5 - 5 x78,5 - 6 x78,6 - 7 x78,7 - 8 x78,8 <= -2
2 x80,2 - 3 x75,3 <= -1
2 x80,2 - 3 x79,3 - 4 x79,4 - 5 x79,5 <= -1
3 x82,3 + 4 x82,4 + 5 x82,5 + 6 x82,6 + 7 x82,7 + 8 x82,8 + 9 x82,9 - 5 x81,5 - 6 x81,6 - 7 x81,7 - 8 x81,8 - 9 x81,9 - 10 x81,10 - 11 x81,11 <= -2
2 x83,2 + 3 x83,3 + 4 x83,4 + 5 x83,5 + 6 x83,6 + 7 x83,7 + 8 x83,8 - 3 x82,3 - 4 x82,4 - 5 x82,5 - 6 x82,6 - 7 x82,7 - 8 x82,8 - 9 x82,9 <= -1
1 x84,1 - 2 x80,2 <= -1
1 x84,1 - 2 x83,2 - 3 x83,3 - 4 x83,4 - 5 x83,5 - 6 x83,6 - 7 x83,7 - 8 x83,8 <= -1
8 x86,8 + 9 x86,9 - 9 x85,9 - 10 x85,10 <= -1
7 x87,7 + 8 x87,8 - 8 x86,8 - 9 x86,9 <= -1
5 x88,5 - 7 x3,7 <= -2
5 x88,5 - 7 x87,7 - 8 x87,8 <= -2
8 x90,8 + 9 x90,9 - 9 x89,9 - 10 x89,10 <= -1
7 x91,7 + 8 x91,8 - 8 x90,8 - 9 x90,9 <= -1
5 x92,5 - 7 x7,7 <= -2
5 x92,5 - 7 x91,7 - 8 x91,8 <= -2
4 x93,4 - 5 x88,5 <= -1
4 x93,4 - 5 x92,5 <= -1
7 x95,7 + 8 x95,8 + 9 x95,9 - 8 x94,8 - 9 x94,9 - 10 x94,10 <= -1
6 x96,6 + 7 x96,7 + 8 x96,8 - 7 x95,7 - 8 x95,8 - 9 x95,9 <= -1
4 x97,4 + 5 x97,5 - 6 x11,6 - 7 x11,7 <= -2
4 x97,4 + 5 x97,5 - 6 x96,6 - 7 x96,7 - 8 x96,8 <= -2
3 x98,3 - 4 x93,4 <= -1
3 x98,3 - 4 x97,4 - 5 x97,5 <= -1
6 x100,6 + 7 x100,7 + 8 x100,8 + 9 x100,9 - 7 x99,7 - 8 x99,8 - 9 x99,9 - 10 x99,10 <= -1
5 x101,5 + 6 x101,6 + 7 x101,7 + 8 x101,8 - 6 x100,6 - 7 x100,7 - 8 x100,8 - 9 x100,9 <= -1
3 x102,3 + 4 x102,4 + 5 x102,5 - 5 x15,5 - 6 x15,6 - 7 x15,7 <= -2
3 x102,3 + 4 x102,4 + 5 x102,5 - 5 x101,5 - 6 x101,6 - 7 x101,7 - 8 x101,8 <= -2
2 x103,2 - 3 x98,3 <= -1
2 x103,2 - 3 x102,3 - 4 x102,4 - 5 x102,5 <= -1
3 x105,3 + 4 x105,4 + 5 x105,5 + 6 x105,6 + 7 x105,7 + 8 x105,8 + 9 x105,9 - 5 x104,5 - 6 x104,6 - 7 x104,7 - 8 x104,8 - 9 x104,9 - 10 x104,10 - 11 x104,11 <= -2
2 x106,2 + 3 x106,3 + 4 x106,4 + 5 x106,5 + 6 x106,6 + 7 x106,7 + 8 x106,8 - 3 x105,3 - 4 x105,4 - 5 x105,5 - 6 x105,6 - 7 x105,7 - 8 x105,8 - 9 x105,9 <= -1
1 x107,1 - 2 x103,2 <= -1
1 x107,1 - 2 x106,2 - 3 x106,3 - 4 x106,4 - 5 x106,5 - 6 x106,6 - 7 x106,7 - 8 x106,8 <= -1
Bounds
0 <= x0,11 <= 1
0 <= x1,9 <= 1
0 <= x2,8 <= 1
0 <= x3,7 <= 1
0 <= x4,11 <= 1
0 <= x5,9 <= 1
0 <= x6,8 <= 1
0 <= x7,7 <= 1
0 <= x8,10 <= 1
0 <= x8,11 <= 1
0 <= x9,8 <= 1
0 <= x9,9 <= 1
0 <= x10,7 <= 1
0 <= x10,8 <= 1
0 <= x11,6 <= 1
0 <= x11,7 <= 1
0 <= x12,9 <= 1
0 <= x12,10 <= 1
0 <= x12,11 <= 1
0 <= x13,7 <= 1
0 <= x13,8 <= 1
0 <= x13,9 <= 1
0 <= x14,6 <= 1
0 <= x14,7 <= 1
0 <= x14,8 <= 1
0 <= x15,5 <= 1
0 <= x15,6 <= 1
0 <= x15,7 <= 1
0 <= x16,9 <= 1
0 <= x16,10 <= 1
0 <= x17,8 <= 1
0 <= x17,9 <= 1
0 <= x18,7 <= 1
0 <= x18,8 <= 1
0 <= x19,5 <= 1
0 <= x20,9 <= 1
0 <= x20,10 <= 1
0 <= x21,8 <= 1
0 <= x21,9 <= 1
0 <= x22,7 <= 1
0 <= x22,8 <= 1
0 <= x23,5 <= 1
0 <= x24,4 <= 1
0 <= x25,8 <= 1
0 <= x25,9 <= 1
0 <= x25,10 <= 1
0 <= x26,7 <= 1
0 <= x26,8 <= 1
0 <= x26,9 <= 1
0 <= x27,6 <= 1
0 <= x27,7 <= 1
0 <= x27,8 <= 1
0 <= x28,4 <= 1
0 <= x28,5 <= 1
0 <= x29,3 <= 1
0 <= x30,7 <= 1
0 <= x30,8 <= 1
0 <= x30,9 <= 1
0 <= x30,10 <= 1
0 <= x31,6 <= 1
0 <= x31,7 <= 1
0 <= x31,8 <= 1
0 <= x31,9 <= 1
0 <= x32,5 <= 1
0 <= x32,6 <= 1
0 <= x32,7 <= 1
0 <= x32,8 <= 1
0 <= x33,3 <= 1
0 <= x33,4 <= 1
0 <= x33,5 <= 1
0 <= x34,2 <= 1
0 <= x35,5 <= 1
0 <= x35,6 <= 1
0 <= x35,7 <= 1
0 <= x35,8 <= 1
0 <= x35,9 <= 1
0 <= x35,10 <= 1
0 <= x35,11 <= 1
0 <= x36,3 <= 1
0 <= x36,4 <= 1
0 <= x36,5 <= 1
0 <= x36,6 <= 1
0 <= x36,7 <= 1
0 <= x36,8 <= 1
0 <= x36,9 <= 1
0 <= x37,2 <= 1
0 <= x37,3 <= 1
0 <= x37,4 <= 1
0 <= x37,5 <= 1
0 <= x37,6 <= 1
0 <= x37,7 <= 1
0 <= x37,8 <= 1
0 <= x38,1 <= 1
0 <= x39,9 <= 1
0 <= x39,10 <= 1
0 <= x40,8 <= 1
0 <= x40,9 <= 1
0 <= x41,7 <= 1
0 <= x41,8 <= 1
0 <= x42,5 <= 1
0 <= x43,9 <= 1
0 <= x43,10 <= 1
0 <= x44,8 <= 1
0 <= x44,9 <= 1
0 <= x45,7 <= 1
0 <= x45,8 <= 1
0 <= x46,5 <= 1
0 <= x47,4 <= 1
0 <= x48,8 <= 1
0 <= x48,9 <= 1
0 <= x48,10 <= 1
0 <= x49,7 <= 1
0 <= x49,8 <= 1
0 <= x49,9 <= 1
0 <= x50,6 <= 1
0 <= x50,7 <= 1
0 <= x50,8 <= 1
0 <= x51,4 <= 1
0 <= x51,5 <= 1
0 <= x52,3 <= 1
0 <= x53,7 <= 1
0 <= x53,8 <= 1
0 <= x53,9 <= 1
0 <= x53,10 <= 1
0 <= x54,6 <= 1
0 <= x54,7 <= 1
0 <= x54,8 <= 1
0 <= x54,9 <= 1
0 <= x55,5 <= 1
0 <= x55,6 <= 1
0 <= x55,7 <= 1
0 <= x55,8 <= 1
0 <= x56,3 <= 1
0 <= x56,4 <= 1
0 <= x56,5 <= 1
0 <= x57,2 <= 1
0 <= x58,5 <= 1
0 <= x58,6 <= 1
0 <= x58,7 <= 1
0 <= x58,8 <= 1
0 <= x58,9 <= 1
0 <= x58,10 <= 1
0 <= x58,11 <= 1
0 <= x59,3 <= 1
0 <= x59,4 <= 1
0 <= x59,5 <= 1
0 <= x59,6 <= 1
0 <= x59,7 <= 1
0 <= x59,8 <= 1
0 <= x59,9 <= 1
0 <= x60,2 <= 1
0 <= x60,3 <= 1
0 <= x60,4 <= 1
0 <= x60,5 <= 1
0 <= x60,6 <= 1
0 <= x60,7 <= 1
0 <= x60,8 <= 1
0 <= x61,1 <= 1
0 <= x62,9 <= 1
0 <= x62,10 <= 1
0 <= x63,8 <= 1
0 <= x63,9 <= 1
0 <= x64,7 <= 1
0 <= x64,8 <= 1
0 <= x65,5 <= 1
0 <= x66,9 <= 1
0 <= x66,10 <= 1
0 <= x67,8 <= 1
0 <= x67,9 <= 1
0 <= x68,7 <= 1
0 <= x68,8 <= 1
0 <= x69,5 <= 1
0 <= x70,4 <= 1
0 <= x71,8 <= 1
0 <= x71,9 <= 1
0 <= x71,10 <= 1
0 <= x72,7 <= 1
0 <= x72,8 <= 1
0 <= x72,9 <= 1
0 <= x73,6 <= 1
0 <= x73,7 <= 1
0 <= x73,8 <= 1
0 <= x74,4 <= 1
0 <= x74,5 <= 1
0 <= x75,3 <= 1
0 <= x76,7 <= 1
0 <= x76,8 <= 1
0 <= x76,9 <= 1
0 <= x76,10 <= 1
0 <= x77,6 <= 1
0 <= x77,7 <= 1
0 <= x77,8 <= 1
0 <= x77,9 <= 1
0 <= x78,5 <= 1
0 <= x78,6 <= 1
0 <= x78,7 <= 1
0 <= x78,8 <= 1
0 <= x79,3 <= 1
0 <= x79,4 <= 1
0 <= x79,5 <= 1
0 <= x80,2 <= 1
0 <= x81,5 <= 1
0 <= x81,6 <= 1
0 <= x81,7 <= 1
0 <= x81,8 <= 1
0 <= x81,9 <= 1
0 <= x81,10 <= 1
0 <= x81,11 <= 1
0 <= x82,3 <= 1
0 <= x82,4 <= 1
0 <= x82,5 <= 1
0 <= x82,6 <= 1
0 <= x82,7 <= 1
0 <= x82,8 <= 1
0 <= x82,9 <= 1
0 <= x83,2 <= 1
0 <= x83,3 <= 1
0 <= x83,4 <= 1
0 <= x83,5 <= 1
0 <= x83,6 <= 1
0 <= x83,7 <= 1
0 <= x83,8 <= 1
0 <= x84,1 <= 1
0 <= x85,9 <= 1
0 <= x85,10 <= 1
0 <= x86,8 <= 1
0 <= x86,9 <= 1
0 <= x87,7 <= 1
0 <= x87,8 <= 1
0 <= x88,5 <= 1
0 <= x89,9 <= 1
0 <= x89,10 <= 1
0 <= x90,8 <= 1
0 <= x90,9 <= 1
0 <= x91,7 <= 1
0 <= x91,8 <= 1
0 <= x92,5 <= 1
0 <= x93,4 <= 1
0 <= x94,8 <= 1
0 <= x94,9 <= 1
0 <= x94,10 <= 1
0 <= x95,7 <= 1
0 <= x95,8 <= 1
0 <= x95,9 <= 1
0 <= x96,6 <= 1
0 <= x96,7 <= 1
0 <= x96,8 <= 1
0 <= x97,4 <= 1
0 <= x97,5 <= 1
0 <= x98,3 <= 1
0 <= x99,7 <= 1
0 <= x99,8 <= 1
0 <= x99,9 <= 1
0 <= x99,10 <= 1
0 <= x100,6 <= 1
0 <= x100,7 <= 1
0 <= x100,8 <= 1
0 <= x100,9 <= 1
0 <= x101,5 <= 1
0 <= x101,6 <= 1
0 <= x101,7 <= 1
0 <= x101,8 <= 1
0 <= x102,3 <= 1
0 <= x102,4 <= 1
0 <= x102,5 <= 1
0 <= x103,2 <= 1
0 <= x104,5 <= 1
0 <= x104,6 <= 1
0 <= x104,7 <= 1
0 <= x104,8 <= 1
0 <= x104,9 <= 1
0 <= x104,10 <= 1
0 <= x104,11 <= 1
0 <= x105,3 <= 1
0 <= x105,4 <= 1
0 <= x105,5 <= 1
0 <= x105,6 <= 1
0 <= x105,7 <= 1
0 <= x105,8 <= 1
0 <= x105,9 <= 1
0 <= x106,2 <= 1
0 <= x106,3 <= 1
0 <= x106,4 <= 1
0 <= x106,5 <= 1
0 <= x106,6 <= 1
0 <= x106,7 <= 1
0 <= x106,8 <= 1
0 <= x107,1 <= 1
0 <= x108,1 <= 1
0 <= x108,2 <= 1
0 <= x108,3 <= 1
0 <= x108,4 <= 1
0 <= x108,5 <= 1
0 <= x108,6 <= 1
0 <= x108,7 <= 1
0 <= x108,8 <= 1
0 <= x108,9 <= 1
0 <= x108,10 <= 1
0 <= x108,11 <= 1
M1 >= 1
M2 >= 1
Generals
x0,11
x1,9
x2,8
x3,7
x4,11
x5,9
x6,8
x7,7
x8,10
x8,11
x9,8
x9,9
x10,7
x10,8
x11,6
x11,7
x12,9
x12,10
x12,11
x13,7
x13,8
x13,9
x14,6
x14,7
x14,8
x15,5
x15,6
x15,7
x16,9
x16,10
x17,8
x17,9
x18,7
x18,8
x19,5
x20,9
x20,10
x21,8
x21,9
x22,7
x22,8
x23,5
x24,4
x25,8
x25,9
x25,10
x26,7
x26,8
x26,9
x27,6
x27,7
x27,8
x28,4
x28,5
x29,3
x30,7
x30,8
x30,9
x30,10
x31,6
x31,7
x31,8
x31,9
x32,5
x32,6
x32,7
x32,8
x33,3
x33,4
x33,5
x34,2
x35,5
x35,6
x35,7
x35,8
x35,9
x35,10
x35,11
x36,3
x36,4
x36,5
x36,6
x36,7
x36,8
x36,9
x37,2
x37,3
x37,4
x37,5
x37,6
x37,7
x37,8
x38,1
x39,9
x39,10
x40,8
x40,9
x41,7
x41,8
x42,5
x43,9
x43,10
x44,8
x44,9
x45,7
x45,8
x46,5
x47,4
x48,8
x48,9
x48,10
x49,7
x49,8
x49,9
x50,6
x50,7
x50,8
x51,4
x51,5
x52,3
x53,7
x53,8
x53,9
x53,10
x54,6
x54,7
x54,8
x54,9
x55,5
x55,6
x55,7
x55,8
x56,3
x56,4
x56,5
x57,2
x58,5
x58,6
x58,7
x58,8
x58,9
x58,10
x58,11
x59,3
x59,4
x59,5
x59,6
x59,7
x59,8
x59,9
x60,2
x60,3
x60,4
x60,5
x60,6
x60,7
x60,8
x61,1
x62,9
x62,10
x63,8
x63,9
x64,7
x64,8
x65,5
x66,9
x66,10
x67,8
x67,9
x68,7
x68,8
x69,5
x70,4
x71,8
x71,9
x71,10
x72,7
x72,8
x72,9
x73,6
x73,7
x73,8
x74,4
x74,5
x75,3
x76,7
x76,8
x76,9
x76,10
x77,6
x77,7
x77,8
x77,9
x78,5
x78,6
x78,7
x78,8
x79,3
x79,4
x79,5
x80,2
x81,5
x81,6
x81,7
x81,8
x81,9
x81,10
x81,11
x82,3
x82,4
x82,5
x82,6
x82,7
x82,8
x82,9
x83,2
x83,3
x83,4
x83,5
x83,6
x83,7
x83,8
x84,1
x85,9
x85,10
x86,8
x86,9
x87,7
x87,8
x88,5
x89,9
x89,10
x90,8
x90,9
x91,7
x91,8
x92,5
x93,4
x94,8
x94,9
x94,10
x95,7
x95,8
x95,9
x96,6
x96,7
x96,8
x97,4
x97,5
x98,3
x99,7
x99,8
x99,9
x99,10
x100,6
x100,7
x100,8
x100,9
x101,5
x101,6
x101,7
x101,8
x102,3
x102,4
x102,5
x103,2
x104,5
x104,6
x104,7
x104,8
x104,9
x104,10
x104,11
x105,3
x105,4
x105,5
x105,6
x105,7
x105,8
x105,9
x106,2
x106,3
x106,4
x106,5
x106,6
x106,7
x106,8
x107,1
x108,1
x108,2
x108,3
x108,4
x108,5
x108,6
x108,7
x108,8
x108,9
x108,10
x108,11
M1
M2
End
